NAME : random_0
COMMENT : 30 random nodes
TYPE : TSP
DIMENSION : 30
EDGE_WEIGHT_TYPE : EUC_2D
NODE_COORD_SECTION
1 1535 109
2 -1432 1533
3 2934 -2199
4 1599 4536
5 -1199 1929
6 1237 4531
7 2226 4059
8 2503 3981
9 -2036 -490
10 3656 -532
11 1568 -2260
12 3911 974
13 3523 166
14 4000 1237
15 2089 3333
16 4263 -1565
17 -439 1496
18 -2081 -283
19 -1583 1234
20 2840 3570
21 3654 -1733
22 -1001 971
23 -2495 1272
24 -1731 4562
25 3469 856
26 3575 995
27 2800 942
28 -237 -1567
29 -553 4527
30 3968 -265
EOF